dates = {'2022-01-31','2022-02-01','2022-02-02','2022-02-03','2022-02-04','2022-02-05','2022-02-06','2022-02-07','2022-02-08','2022-02-09','2022-02-10','2022-02-11','2022-02-12','2022-02-13','2022-02-14','2022-02-15','2022-02-16','2022-02-17','2022-02-18','2022-02-19'};

daysOfWeek = [Monday,Tuesday,Wednesday,Thursday,Friday,Saturday,Sunday,Monday,Tuesday,Wednesday,Thursday,Friday,Saturday,Sunday,Monday,Tuesday,Wednesday,Thursday,Friday,Saturday];

winter = false;

% For this week, how many people will be here.
numPeople = [158,160,160,155,158,158,158,154,156,156,156,156,156,156,156,163,163,163
,162,147];

% Physical workers need 50 to 100 % more nutrients per day.
numPhysicalWorkers = [57.5,54.0,54.0,54.0,53.0,53.0,53.0,53.0,51.5,51.5,51.5,51.5,51.5,51.5
,55.0,50.5,50.5,50.5,50.5,50.5];

% Males need +25% more nutrients per day.
numMen = [137,132,132,132,132,132,132,132,128,128,128,128,128,128,132,134,134,134
,134,136];

% Num people who do not eat categories. contains = {none, meat, milk, gluten, egg, nut, seed, sugars}
numRefusals = [| 0,12,0,0,0,0,0,0 | 0,2,0,1,2,9,0,2 | 0,2,0,1,2,9,0,2 | 0,1,6,0,2,0,0,5 | 0,0,0,1,0,0,7,0 | 0,0,0,1,0,0,7,0 | 0,0,0,1,0,0,7,0 | 0,4,0,2,3,3,3,7 | 0,3,1,6,11,0,3,0 | 0,3,1,6,11,0,3,0 | 0,3,1,6,11,0,3,0 | 0,3,1,6,11,0,3,0 | 0,3,1,6,11,0,3,0 | 0,3,1,6,11,0,3,0 | 0,3,1,6,11,0,3,0 | 0,0,3,0,4,6,0,8 | 0,0,3,0,4,6,0,8 | 0,0,3,0,4,6,0,8 | 0,0,0,3,15,0,0,12 | 0,0,14,6,0,0,9,0 |];

